1729435
31,21,24,61,47,20,4,48,2,27,17,58,15,8,68,35,51,39,62,37,53,50,28,59,36,16,63,3,32,56,40,19,49,23,60,25,6,11,66,26,55,34,46,43,7,38,67,64,41,30,29,5,42,12,1,54,13,65,45,9,44,14,10,18,57,33,52,22